proyfinal/src/viki/013/experimentInOfficeAgust.take6.output/c6f29180-968f-45fb-976b-2aa0b6a3315e.als.dat
{'cnf.clauses': '118081',
 'cnf.totvars': '69608',
 'conflict literals': '27',
 'conflicts': '15',
 'decisions': '1980',
 'memused.mb': '14.79',
 'outcome': 'UNSAT',
 'propagations': '23684',
 'restarts': '1',
 'solver.msecs': 33,
 'task.msecs': 85}
