proyfinal/src/viki/013/experimentInOfficeAgust.take6.output/c6f29180-968f-45fb-976b-2aa0b6a3315e.als.out
Reading from standard input... Use '--help' for help.
============================[ Problem Statistics ]=============================
|                                                                             |
|  Number of variables:         69608                                         |
|  Number of clauses:          118081                                         |
|  Parse time:                   0.03 s                                       |
|                                                                             |
============================[ Search Statistics ]==============================
| Conflicts |          ORIGINAL         |          LEARNT          | Progress |
|           |    Vars  Clauses Literals |    Limit  Clauses Lit/Cl |          |
===============================================================================
===============================================================================
restarts              : 1
conflicts             : 15             (442 /sec)
decisions             : 1980           (0.00 % random) (58304 /sec)
propagations          : 23684          (697409 /sec)
conflict literals     : 27             (0.00 % deleted)
Memory used           : 14.79 MB
CPU time              : 0.03396 s

UNSATISFIABLE
